38 33 41 26 24 30 8 69 40 89 10 39 48 85 66 73 21 74 43 16 44 84 61 57 1 17 51 37 47 14 3 36 63 52 90 77 94 79 23 12 7 92 49 76 25 4 28 31 75 64 71 19 59 11 15 32 27 68 58 6 13 45 60 35 67 97 54 34 78 62 53 20 46 29 91 87 99 72 80 42 56 88 2 50 5 55 22 86 18 65 82 9 70 95 93 96 98 81 0 83 

